-216.0 3.0 4.0 9.0 2.0 1.0 6.0 0.0 0.0 8.0 3.0 0.0 0.0 1.0 10.0 2.0 0.0 10.0 9.0 8.0 0.0 1.0 3.0 2.0 7.0 10.0 0.0 5.0 5.0 7.0 8.0 9.0 10.0 5.0 1.0 0.0 4.0 2.0 2.0 9.0 4.0 7.0 1.0 1.0 9.0 0.0 6.0 1.0 10.0 5.0 6.0 0.0 0.0 0.0 
3.0 -241.0 7.0 7.0 2.0 8.0 9.0 1.0 1.0 3.0 10.0 4.0 8.0 3.0 2.0 8.0 4.0 1.0 4.0 8.0 10.0 2.0 6.0 3.0 4.0 1.0 4.0 1.0 8.0 10.0 5.0 8.0 7.0 10.0 4.0 10.0 10.0 7.0 5.0 10.0 2.0 5.0 3.0 3.0 7.0 3.0 0.0 0.0 0.0 0.0 0.0 0.0 0.0 0.0 
4.0 7.0 -267.0 5.0 1.0 6.0 4.0 6.0 0.0 9.0 8.0 8.0 0.0 7.0 3.0 5.0 4.0 1.0 9.0 2.0 6.0 5.0 2.0 7.0 9.0 0.0 5.0 9.0 4.0 10.0 9.0 9.0 4.0 0.0 6.0 1.0 10.0 1.0 4.0 8.0 3.0 2.0 7.0 7.0 5.0 9.0 1.0 6.0 2.0 10.0 3.0 7.0 7.0 0.0 
9.0 7.0 5.0 -266.0 3.0 3.0 3.0 1.0 8.0 9.0 8.0 2.0 0.0 8.0 10.0 10.0 9.0 6.0 0.0 10.0 10.0 9.0 0.0 9.0 4.0 8.0 3.0 8.0 6.0 1.0 10.0 7.0 0.0 3.0 3.0 8.0 7.0 8.0 4.0 1.0 2.0 4.0 3.0 2.0 4.0 2.0 7.0 5.0 4.0 4.0 3.0 0.0 5.0 1.0 
2.0 2.0 1.0 3.0 -265.0 5.0 6.0 10.0 7.0 3.0 9.0 6.0 10.0 9.0 5.0 10.0 3.0 6.0 6.0 7.0 2.0 6.0 10.0 4.0 6.0 0.0 9.0 9.0 7.0 9.0 1.0 1.0 3.0 4.0 0.0 5.0 0.0 8.0 3.0 6.0 6.0 2.0 1.0 3.0 5.0 3.0 10.0 4.0 1.0 4.0 4.0 8.0 5.0 6.0 
1.0 8.0 6.0 3.0 5.0 -269.0 6.0 5.0 1.0 1.0 9.0 8.0 5.0 9.0 6.0 8.0 4.0 7.0 7.0 9.0 10.0 6.0 7.0 2.0 6.0 0.0 3.0 4.0 2.0 1.0 5.0 2.0 1.0 7.0 5.0 4.0 4.0 5.0 1.0 7.0 10.0 8.0 7.0 8.0 3.0 4.0 8.0 5.0 5.0 6.0 4.0 10.0 0.0 1.0 
6.0 9.0 4.0 3.0 6.0 6.0 -255.0 8.0 5.0 4.0 1.0 5.0 2.0 9.0 5.0 2.0 4.0 6.0 8.0 6.0 8.0 4.0 1.0 0.0 7.0 8.0 7.0 5.0 10.0 2.0 4.0 3.0 1.0 9.0 6.0 1.0 1.0 1.0 4.0 0.0 6.0 0.0 9.0 2.0 5.0 10.0 2.0 5.0 4.0 8.0 8.0 4.0 8.0 3.0 
0.0 1.0 6.0 1.0 10.0 5.0 8.0 -247.0 10.0 0.0 2.0 0.0 5.0 10.0 8.0 8.0 1.0 9.0 6.0 2.0 5.0 0.0 2.0 4.0 5.0 4.0 0.0 10.0 3.0 7.0 6.0 4.0 8.0 2.0 5.0 3.0 4.0 5.0 1.0 6.0 2.0 2.0 2.0 1.0 7.0 8.0 4.0 7.0 4.0 7.0 7.0 8.0 9.0 3.0 
0.0 1.0 0.0 8.0 7.0 1.0 5.0 10.0 -231.0 10.0 2.0 8.0 3.0 9.0 2.0 2.0 3.0 1.0 9.0 0.0 1.0 8.0 2.0 6.0 3.0 1.0 7.0 4.0 7.0 1.0 7.0 3.0 4.0 4.0 0.0 5.0 3.0 0.0 4.0 7.0 8.0 10.0 5.0 2.0 0.0 9.0 5.0 2.0 8.0 0.0 10.0 1.0 7.0 6.0 
8.0 3.0 9.0 9.0 3.0 1.0 4.0 0.0 10.0 -254.0 9.0 10.0 5.0 3.0 0.0 2.0 10.0 3.0 2.0 1.0 3.0 6.0 1.0 6.0 6.0 1.0 1.0 6.0 8.0 5.0 4.0 9.0 0.0 3.0 1.0 8.0 9.0 7.0 1.0 6.0 4.0 7.0 4.0 3.0 6.0 4.0 7.0 9.0 10.0 6.0 0.0 4.0 1.0 6.0 
3.0 10.0 8.0 8.0 9.0 9.0 1.0 2.0 2.0 9.0 -267.0 4.0 6.0 1.0 8.0 3.0 1.0 4.0 9.0 5.0 6.0 1.0 10.0 6.0 10.0 3.0 6.0 5.0 6.0 8.0 1.0 6.0 5.0 9.0 8.0 3.0 3.0 6.0 4.0 2.0 4.0 0.0 0.0 0.0 0.0 0.0 10.0 9.0 2.0 8.0 8.0 8.0 8.0 0.0 
0.0 4.0 8.0 2.0 6.0 8.0 5.0 0.0 8.0 10.0 4.0 -271.0 5.0 5.0 1.0 1.0 9.0 9.0 6.0 7.0 1.0 4.0 5.0 1.0 10.0 5.0 0.0 4.0 2.0 3.0 10.0 6.0 9.0 8.0 8.0 3.0 4.0 1.0 9.0 1.0 8.0 3.0 7.0 10.0 3.0 8.0 9.0 3.0 0.0 3.0 2.0 7.0 8.0 8.0 
0.0 8.0 0.0 0.0 10.0 5.0 2.0 5.0 3.0 5.0 6.0 5.0 -235.0 3.0 0.0 5.0 6.0 6.0 9.0 4.0 4.0 6.0 10.0 8.0 7.0 2.0 5.0 0.0 5.0 3.0 1.0 4.0 0.0 4.0 10.0 3.0 9.0 1.0 5.0 7.0 6.0 0.0 8.0 10.0 6.0 0.0 9.0 2.0 0.0 1.0 1.0 10.0 1.0 5.0 
1.0 3.0 7.0 8.0 9.0 9.0 9.0 10.0 9.0 3.0 1.0 5.0 3.0 -301.0 2.0 9.0 4.0 4.0 6.0 5.0 6.0 10.0 2.0 5.0 3.0 10.0 9.0 3.0 2.0 3.0 10.0 5.0 9.0 9.0 2.0 4.0 9.0 5.0 3.0 4.0 8.0 2.0 9.0 0.0 10.0 8.0 2.0 7.0 5.0 3.0 5.0 9.0 7.0 6.0 
10.0 2.0 3.0 10.0 5.0 6.0 5.0 8.0 2.0 0.0 8.0 1.0 0.0 2.0 -271.0 7.0 8.0 5.0 0.0 6.0 8.0 10.0 6.0 7.0 10.0 1.0 9.0 3.0 3.0 10.0 10.0 0.0 8.0 6.0 3.0 5.0 10.0 0.0 4.0 4.0 9.0 10.0 0.0 2.0 0.0 4.0 6.0 5.0 6.0 1.0 4.0 9.0 1.0 9.0 
2.0 8.0 5.0 10.0 10.0 8.0 2.0 8.0 2.0 2.0 3.0 1.0 5.0 9.0 7.0 -246.0 9.0 2.0 10.0 0.0 0.0 10.0 2.0 2.0 4.0 2.0 10.0 4.0 5.0 5.0 5.0 0.0 4.0 8.0 4.0 3.0 0.0 3.0 7.0 5.0 7.0 0.0 8.0 4.0 8.0 6.0 0.0 6.0 3.0 1.0 7.0 0.0 10.0 0.0 
0.0 4.0 4.0 9.0 3.0 4.0 4.0 1.0 3.0 10.0 1.0 9.0 6.0 4.0 8.0 9.0 -264.0 10.0 9.0 5.0 8.0 3.0 6.0 3.0 9.0 5.0 0.0 8.0 8.0 7.0 2.0 1.0 5.0 8.0 4.0 4.0 4.0 3.0 5.0 8.0 9.0 0.0 4.0 4.0 1.0 3.0 9.0 9.0 10.0 0.0 0.0 1.0 8.0 2.0 
10.0 1.0 1.0 6.0 6.0 7.0 6.0 9.0 1.0 3.0 4.0 9.0 6.0 4.0 5.0 2.0 10.0 -274.0 10.0 9.0 3.0 10.0 6.0 1.0 9.0 0.0 2.0 3.0 2.0 4.0 1.0 8.0 4.0 7.0 2.0 9.0 4.0 10.0 8.0 1.0 0.0 6.0 0.0 8.0 9.0 8.0 3.0 10.0 7.0 1.0 9.0 9.0 0.0 1.0 
9.0 4.0 9.0 0.0 6.0 7.0 8.0 6.0 9.0 2.0 9.0 6.0 9.0 6.0 0.0 10.0 9.0 10.0 -303.0 6.0 1.0 7.0 8.0 2.0 3.0 10.0 8.0 8.0 4.0 4.0 4.0 0.0 5.0 1.0 7.0 7.0 7.0 4.0 5.0 6.0 4.0 7.0 1.0 8.0 7.0 10.0 3.0 2.0 9.0 8.0 3.0 9.0 1.0 5.0 
8.0 8.0 2.0 10.0 7.0 9.0 6.0 2.0 0.0 1.0 5.0 7.0 4.0 5.0 6.0 0.0 5.0 9.0 6.0 -290.0 10.0 1.0 3.0 4.0 4.0 1.0 0.0 0.0 8.0 4.0 7.0 10.0 7.0 2.0 3.0 5.0 9.0 6.0 2.0 8.0 6.0 3.0 5.0 9.0 9.0 6.0 1.0 7.0 9.0 3.0 10.0 10.0 10.0 8.0 
0.0 10.0 6.0 10.0 2.0 10.0 8.0 5.0 1.0 3.0 6.0 1.0 4.0 6.0 8.0 0.0 8.0 3.0 1.0 10.0 -284.0 9.0 8.0 8.0 9.0 7.0 1.0 6.0 10.0 8.0 2.0 5.0 3.0 1.0 6.0 7.0 8.0 9.0 7.0 10.0 10.0 6.0 5.0 0.0 0.0 10.0 2.0 10.0 0.0 1.0 3.0 1.0 4.0 6.0 
1.0 2.0 5.0 9.0 6.0 6.0 4.0 0.0 8.0 6.0 1.0 4.0 6.0 10.0 10.0 10.0 3.0 10.0 7.0 1.0 9.0 -276.0 4.0 5.0 6.0 9.0 7.0 4.0 2.0 6.0 10.0 4.0 4.0 0.0 0.0 7.0 2.0 10.0 5.0 4.0 0.0 7.0 7.0 2.0 10.0 10.0 2.0 5.0 2.0 4.0 2.0 9.0 4.0 5.0 
3.0 6.0 2.0 0.0 10.0 7.0 1.0 2.0 2.0 1.0 10.0 5.0 10.0 2.0 6.0 2.0 6.0 6.0 8.0 3.0 8.0 4.0 -258.0 4.0 0.0 10.0 7.0 6.0 4.0 10.0 2.0 5.0 0.0 1.0 4.0 10.0 10.0 5.0 6.0 8.0 0.0 1.0 10.0 6.0 8.0 5.0 0.0 10.0 2.0 2.0 5.0 5.0 0.0 8.0 
2.0 3.0 7.0 9.0 4.0 2.0 0.0 4.0 6.0 6.0 6.0 1.0 8.0 5.0 7.0 2.0 3.0 1.0 2.0 4.0 8.0 5.0 4.0 -252.0 1.0 2.0 10.0 4.0 6.0 8.0 6.0 9.0 5.0 2.0 6.0 0.0 6.0 2.0 9.0 3.0 10.0 8.0 9.0 7.0 10.0 0.0 0.0 7.0 5.0 2.0 0.0 2.0 7.0 7.0 
7.0 4.0 9.0 4.0 6.0 6.0 7.0 5.0 3.0 6.0 10.0 10.0 7.0 3.0 10.0 4.0 9.0 9.0 3.0 4.0 9.0 6.0 0.0 1.0 -300.0 10.0 10.0 7.0 9.0 1.0 0.0 4.0 1.0 2.0 5.0 3.0 9.0 6.0 6.0 2.0 3.0 1.0 10.0 8.0 7.0 8.0 4.0 6.0 10.0 8.0 3.0 7.0 6.0 2.0 
10.0 1.0 0.0 8.0 0.0 0.0 8.0 4.0 1.0 1.0 3.0 5.0 2.0 10.0 1.0 2.0 5.0 0.0 10.0 1.0 7.0 9.0 10.0 2.0 10.0 -242.0 1.0 3.0 9.0 5.0 7.0 2.0 5.0 10.0 10.0 3.0 0.0 4.0 1.0 0.0 5.0 4.0 6.0 5.0 9.0 8.0 9.0 5.0 1.0 8.0 3.0 7.0 0.0 2.0 
0.0 4.0 5.0 3.0 9.0 3.0 7.0 0.0 7.0 1.0 6.0 0.0 5.0 9.0 9.0 10.0 0.0 2.0 8.0 0.0 1.0 7.0 7.0 10.0 10.0 1.0 -273.0 4.0 8.0 5.0 0.0 0.0 4.0 3.0 5.0 10.0 8.0 3.0 7.0 0.0 8.0 8.0 8.0 6.0 4.0 7.0 10.0 5.0 8.0 7.0 1.0 9.0 3.0 8.0 
5.0 1.0 9.0 8.0 9.0 4.0 5.0 10.0 4.0 6.0 5.0 4.0 0.0 3.0 3.0 4.0 8.0 3.0 8.0 0.0 6.0 4.0 6.0 4.0 7.0 3.0 4.0 -278.0 10.0 1.0 0.0 3.0 8.0 9.0 2.0 4.0 7.0 4.0 2.0 6.0 8.0 5.0 4.0 10.0 6.0 8.0 8.0 9.0 10.0 8.0 3.0 1.0 3.0 6.0 
5.0 8.0 4.0 6.0 7.0 2.0 10.0 3.0 7.0 8.0 6.0 2.0 5.0 2.0 3.0 5.0 8.0 2.0 4.0 8.0 10.0 2.0 4.0 6.0 9.0 9.0 8.0 10.0 -293.0 1.0 0.0 9.0 4.0 3.0 1.0 10.0 7.0 4.0 7.0 2.0 6.0 7.0 7.0 0.0 7.0 7.0 1.0 8.0 10.0 2.0 8.0 3.0 10.0 6.0 
7.0 10.0 10.0 1.0 9.0 1.0 2.0 7.0 1.0 5.0 8.0 3.0 3.0 3.0 10.0 5.0 7.0 4.0 4.0 4.0 8.0 6.0 10.0 8.0 1.0 5.0 5.0 1.0 1.0 -262.0 2.0 6.0 8.0 6.0 2.0 6.0 1.0 1.0 2.0 4.0 10.0 8.0 3.0 6.0 6.0 7.0 5.0 1.0 0.0 0.0 6.0 5.0 8.0 10.0 
8.0 5.0 9.0 10.0 1.0 5.0 4.0 6.0 7.0 4.0 1.0 10.0 1.0 10.0 10.0 5.0 2.0 1.0 4.0 7.0 2.0 10.0 2.0 6.0 0.0 7.0 0.0 0.0 0.0 2.0 -270.0 9.0 9.0 7.0 2.0 6.0 6.0 6.0 2.0 5.0 8.0 10.0 5.0 5.0 8.0 7.0 10.0 9.0 3.0 7.0 2.0 0.0 5.0 0.0 
9.0 8.0 9.0 7.0 1.0 2.0 3.0 4.0 3.0 9.0 6.0 6.0 4.0 5.0 0.0 0.0 1.0 8.0 0.0 10.0 5.0 4.0 5.0 9.0 4.0 2.0 0.0 3.0 9.0 6.0 9.0 -273.0 5.0 0.0 4.0 4.0 10.0 9.0 9.0 10.0 6.0 9.0 6.0 8.0 10.0 1.0 5.0 6.0 1.0 6.0 6.0 0.0 5.0 2.0 
10.0 7.0 4.0 0.0 3.0 1.0 1.0 8.0 4.0 0.0 5.0 9.0 0.0 9.0 8.0 4.0 5.0 4.0 5.0 7.0 3.0 4.0 0.0 5.0 1.0 5.0 4.0 8.0 4.0 8.0 9.0 5.0 -256.0 6.0 8.0 6.0 2.0 2.0 4.0 3.0 1.0 2.0 8.0 3.0 5.0 7.0 4.0 9.0 5.0 9.0 8.0 3.0 6.0 5.0 
5.0 10.0 0.0 3.0 4.0 7.0 9.0 2.0 4.0 3.0 9.0 8.0 4.0 9.0 6.0 8.0 8.0 7.0 1.0 2.0 1.0 0.0 1.0 2.0 2.0 10.0 3.0 9.0 3.0 6.0 7.0 0.0 6.0 -250.0 10.0 2.0 9.0 3.0 5.0 2.0 0.0 8.0 5.0 0.0 10.0 3.0 9.0 5.0 5.0 8.0 7.0 0.0 0.0 0.0 
1.0 4.0 6.0 3.0 0.0 5.0 6.0 5.0 0.0 1.0 8.0 8.0 10.0 2.0 3.0 4.0 4.0 2.0 7.0 3.0 6.0 0.0 4.0 6.0 5.0 10.0 5.0 2.0 1.0 2.0 2.0 4.0 8.0 10.0 -255.0 7.0 5.0 1.0 6.0 3.0 4.0 8.0 7.0 5.0 7.0 7.0 8.0 3.0 8.0 6.0 4.0 5.0 5.0 9.0 
0.0 10.0 1.0 8.0 5.0 4.0 1.0 3.0 5.0 8.0 3.0 3.0 3.0 4.0 5.0 3.0 4.0 9.0 7.0 5.0 7.0 7.0 10.0 0.0 3.0 3.0 10.0 4.0 10.0 6.0 6.0 4.0 6.0 2.0 7.0 -265.0 7.0 9.0 7.0 4.0 1.0 7.0 0.0 8.0 1.0 9.0 6.0 1.0 5.0 5.0 4.0 7.0 8.0 0.0 
4.0 10.0 10.0 7.0 0.0 4.0 1.0 4.0 3.0 9.0 3.0 4.0 9.0 9.0 10.0 0.0 4.0 4.0 7.0 9.0 8.0 2.0 10.0 6.0 9.0 0.0 8.0 7.0 7.0 1.0 6.0 10.0 2.0 9.0 5.0 7.0 -295.0 1.0 4.0 10.0 3.0 5.0 0.0 7.0 9.0 7.0 8.0 4.0 10.0 6.0 1.0 9.0 0.0 3.0 
2.0 7.0 1.0 8.0 8.0 5.0 1.0 5.0 0.0 7.0 6.0 1.0 1.0 5.0 0.0 3.0 3.0 10.0 4.0 6.0 9.0 10.0 5.0 2.0 6.0 4.0 3.0 4.0 4.0 1.0 6.0 9.0 2.0 3.0 1.0 9.0 1.0 -265.0 6.0 5.0 9.0 4.0 9.0 1.0 7.0 5.0 9.0 9.0 9.0 10.0 0.0 4.0 9.0 7.0 
2.0 5.0 4.0 4.0 3.0 1.0 4.0 1.0 4.0 1.0 4.0 9.0 5.0 3.0 4.0 7.0 5.0 8.0 5.0 2.0 7.0 5.0 6.0 9.0 6.0 1.0 7.0 2.0 7.0 2.0 2.0 9.0 4.0 5.0 6.0 7.0 4.0 6.0 -259.0 2.0 10.0 7.0 9.0 6.0 4.0 0.0 9.0 9.0 6.0 6.0 4.0 8.0 2.0 1.0 
9.0 10.0 8.0 1.0 6.0 7.0 0.0 6.0 7.0 6.0 2.0 1.0 7.0 4.0 4.0 5.0 8.0 1.0 6.0 8.0 10.0 4.0 8.0 3.0 2.0 0.0 0.0 6.0 2.0 4.0 5.0 10.0 3.0 2.0 3.0 4.0 10.0 5.0 2.0 -271.0 10.0 7.0 3.0 4.0 10.0 4.0 6.0 10.0 8.0 1.0 0.0 1.0 9.0 9.0 
4.0 2.0 3.0 2.0 6.0 10.0 6.0 2.0 8.0 4.0 4.0 8.0 6.0 8.0 9.0 7.0 9.0 0.0 4.0 6.0 10.0 0.0 0.0 10.0 3.0 5.0 8.0 8.0 6.0 10.0 8.0 6.0 1.0 0.0 4.0 1.0 3.0 9.0 10.0 10.0 -278.0 8.0 1.0 5.0 2.0 4.0 5.0 3.0 5.0 4.0 4.0 5.0 6.0 6.0 
7.0 5.0 2.0 4.0 2.0 8.0 0.0 2.0 10.0 7.0 0.0 3.0 0.0 2.0 10.0 0.0 0.0 6.0 7.0 3.0 6.0 7.0 1.0 8.0 1.0 4.0 8.0 5.0 7.0 8.0 10.0 9.0 2.0 8.0 8.0 7.0 5.0 4.0 7.0 7.0 8.0 -279.0 5.0 4.0 6.0 9.0 10.0 8.0 7.0 5.0 10.0 0.0 7.0 0.0 
1.0 3.0 7.0 3.0 1.0 7.0 9.0 2.0 5.0 4.0 0.0 7.0 8.0 9.0 0.0 8.0 4.0 0.0 1.0 5.0 5.0 7.0 10.0 9.0 10.0 6.0 8.0 4.0 7.0 3.0 5.0 6.0 8.0 5.0 7.0 0.0 0.0 9.0 9.0 3.0 1.0 5.0 -265.0 6.0 2.0 0.0 5.0 10.0 5.0 8.0 10.0 4.0 3.0 1.0 
1.0 3.0 7.0 2.0 3.0 8.0 2.0 1.0 2.0 3.0 0.0 10.0 10.0 0.0 2.0 4.0 4.0 8.0 8.0 9.0 0.0 2.0 6.0 7.0 8.0 5.0 6.0 10.0 0.0 6.0 5.0 8.0 3.0 0.0 5.0 8.0 7.0 1.0 6.0 4.0 5.0 4.0 6.0 -257.0 3.0 10.0 6.0 4.0 6.0 4.0 2.0 7.0 8.0 8.0 
9.0 7.0 5.0 4.0 5.0 3.0 5.0 7.0 0.0 6.0 0.0 3.0 6.0 10.0 0.0 8.0 1.0 9.0 7.0 9.0 0.0 10.0 8.0 10.0 7.0 9.0 4.0 6.0 7.0 6.0 8.0 10.0 5.0 10.0 7.0 1.0 9.0 7.0 4.0 10.0 2.0 6.0 2.0 3.0 -304.0 7.0 3.0 0.0 2.0 5.0 9.0 9.0 10.0 4.0 
0.0 3.0 9.0 2.0 3.0 4.0 10.0 8.0 9.0 4.0 0.0 8.0 0.0 8.0 4.0 6.0 3.0 8.0 10.0 6.0 10.0 10.0 5.0 0.0 8.0 8.0 7.0 8.0 7.0 7.0 7.0 1.0 7.0 3.0 7.0 9.0 7.0 5.0 0.0 4.0 4.0 9.0 0.0 10.0 7.0 -291.0 1.0 0.0 6.0 7.0 6.0 10.0 5.0 1.0 
6.0 0.0 1.0 7.0 10.0 8.0 2.0 4.0 5.0 7.0 10.0 9.0 9.0 2.0 6.0 0.0 9.0 3.0 3.0 1.0 2.0 2.0 0.0 0.0 4.0 9.0 10.0 8.0 1.0 5.0 10.0 5.0 4.0 9.0 8.0 6.0 8.0 9.0 9.0 6.0 5.0 10.0 5.0 6.0 3.0 1.0 -277.0 4.0 6.0 0.0 5.0 6.0 1.0 8.0 
1.0 0.0 6.0 5.0 4.0 5.0 5.0 7.0 2.0 9.0 9.0 3.0 2.0 7.0 5.0 6.0 9.0 10.0 2.0 7.0 10.0 5.0 10.0 7.0 6.0 5.0 5.0 9.0 8.0 1.0 9.0 6.0 9.0 5.0 3.0 1.0 4.0 9.0 9.0 10.0 3.0 8.0 10.0 4.0 0.0 0.0 4.0 -285.0 2.0 5.0 1.0 5.0 4.0 4.0 
10.0 0.0 2.0 4.0 1.0 5.0 4.0 4.0 8.0 10.0 2.0 0.0 0.0 5.0 6.0 3.0 10.0 7.0 9.0 9.0 0.0 2.0 2.0 5.0 10.0 1.0 8.0 10.0 10.0 0.0 3.0 1.0 5.0 5.0 8.0 5.0 10.0 9.0 6.0 8.0 5.0 7.0 5.0 6.0 2.0 6.0 6.0 2.0 -268.0 4.0 2.0 5.0 2.0 9.0 
5.0 0.0 10.0 4.0 4.0 6.0 8.0 7.0 0.0 6.0 8.0 3.0 1.0 3.0 1.0 1.0 0.0 1.0 8.0 3.0 1.0 4.0 2.0 2.0 8.0 8.0 7.0 8.0 2.0 0.0 7.0 6.0 9.0 8.0 6.0 5.0 6.0 10.0 6.0 1.0 4.0 5.0 8.0 4.0 5.0 7.0 0.0 5.0 4.0 -232.0 0.0 2.0 3.0 0.0 
6.0 0.0 3.0 3.0 4.0 4.0 8.0 7.0 10.0 0.0 8.0 2.0 1.0 5.0 4.0 7.0 0.0 9.0 3.0 10.0 3.0 2.0 5.0 0.0 3.0 3.0 1.0 3.0 8.0 6.0 2.0 6.0 8.0 7.0 4.0 4.0 1.0 0.0 4.0 0.0 4.0 10.0 10.0 2.0 9.0 6.0 5.0 1.0 2.0 0.0 -226.0 7.0 6.0 0.0 
0.0 0.0 7.0 0.0 8.0 10.0 4.0 8.0 1.0 4.0 8.0 7.0 10.0 9.0 9.0 0.0 1.0 9.0 9.0 10.0 1.0 9.0 5.0 2.0 7.0 7.0 9.0 1.0 3.0 5.0 0.0 0.0 3.0 0.0 5.0 7.0 9.0 4.0 8.0 1.0 5.0 0.0 4.0 7.0 9.0 10.0 6.0 5.0 5.0 2.0 7.0 -273.0 3.0 10.0 
0.0 0.0 7.0 5.0 5.0 0.0 8.0 9.0 7.0 1.0 8.0 8.0 1.0 7.0 1.0 10.0 8.0 0.0 1.0 10.0 4.0 4.0 0.0 7.0 6.0 0.0 3.0 3.0 10.0 8.0 5.0 5.0 6.0 0.0 5.0 8.0 0.0 9.0 2.0 9.0 6.0 7.0 3.0 8.0 10.0 5.0 1.0 4.0 2.0 3.0 6.0 3.0 -253.0 5.0 
0.0 0.0 0.0 1.0 6.0 1.0 3.0 3.0 6.0 6.0 0.0 8.0 5.0 6.0 9.0 0.0 2.0 1.0 5.0 8.0 6.0 5.0 8.0 7.0 2.0 2.0 8.0 6.0 6.0 10.0 0.0 2.0 5.0 0.0 9.0 0.0 3.0 7.0 1.0 9.0 6.0 0.0 1.0 8.0 4.0 1.0 8.0 4.0 9.0 0.0 0.0 10.0 5.0 -222.0 

